z1,z2,z3,nondominated
4,10,8,0
7,1,9,0
7,9,7,0
1,7,7,0
10,10,10,0
6,6,3,0
2,7,4,0
9,3,10,0
2,5,7,0
2,3,6,0
7,7,3,0
2,3,10,0
10,4,3,0
7,9,3,0
10,2,1,0
1,8,6,0
5,9,5,0
8,2,8,0
8,6,9,0
8,4,8,0
4,3,7,0
10,5,8,0
3,9,2,0
6,6,1,0
6,9,2,0
7,9,2,0
10,2,9,0
6,6,10,0
5,8,8,0
10,5,8,0
10,3,6,0
6,7,2,0
6,5,8,0
10,4,6,0
7,5,10,0
9,3,4,0
5,10,6,0
5,8,3,0
2,9,2,0
7,10,1,0
10,4,6,0
8,9,9,0
6,6,4,0
10,3,2,0
7,2,3,0
8,9,4,0
2,7,10,0
2,2,4,0
2,3,2,0
1,1,1,0
1,1,1,0
1,1,1,0
1,1,1,0
1,1,1,0
1,1,1,0
1,1,1,0
